c turning on binary mode checking
c parsing input formula with 202048 variables and 780990 clauses
c finished parsing, read 16629691 bytes from proof file
c detected empty clause; start verification via backward checking
c 8673 of 780990 clauses in core                            
c 7915 of 455951 lemmas in core using 79966 resolution steps
c 0 RAT lemmas in core; 537 redundant literals in core lemmas
s VERIFIED
c verification time: 2.024 seconds
